470,115
762,246
918,369
909,332
723,364
635,264
452,91
885,6
935,152
1020,160
1011,406
893,618
681,946
892,115
898,-21
795,443
817,673
721,486
245,723
435,745
744,469
1036,462
947,599
945,770
892,697
822,600
633,371
563,388
267,341
469,194
778,336
